
630.0
630.0
780.0
630.0
630.0
900.0
1110.0
960.0
630.0
630.0
1170.0
630.0
630.0
660.0
1140.0
630.0
630.0
630.0
630.0
630.0
630.0
630.0
630.0
630.0
630.0
630.0
630.0
630.0
630.0
630.0
630.0
630.0
630.0
630.0
630.0
630.0
630.0
630.0
1140.0
1140.0